Water Network: 9
***********************************************************************************************

-------------------------------- Solving Reduced Model using gurobi --------------------------
WDN Model Name: exact_reduced_wdn.mod
Gurobi 13.0.0: Set parameter LogToConsole to value 1
  tech:outlev = 1
  tech:outlev_mp = 1
Set parameter Presolve to value 1
  pre:solve = 1
Set parameter Aggregate to value 1
  pre:aggregate = 1
Set parameter TimeLimit to value 600
  lim:time = 600
Set parameter NumericFocus to value 1
  alg:numericfocus = 1
Set parameter OBBT to value 0
  mip:obbt = 0
Set parameter ScaleFlag to value 1
  pre:scale = 1
Set parameter Method to value 2
  alg:method = 2
Set parameter NodeMethod to value 1
  mip:nodemethod = 1
Set parameter NonConvex to value 2
  qp:nonconvex = 2
Set parameter MIPFocus to value 1
  mip:focus = 1
Set parameter NLPHeur to value 1
  alg:nlpheur = 1
Set parameter VarBranch to value 0
  mip:varbranch = 0
Set parameter MIPGapAbs to value 1e-06
  mip:gapabs = 9.9999999999999995e-07
Set parameter MIPGap to value 1e-09
  mip:gap = 1.0000000000000001e-09
Set parameter FeasibilityTol to value 1e-06
  alg:feastol = 9.9999999999999995e-07
  cvt:pre:feastol = 9.9999999999999995e-07
  cvt:pre:feastolrel = 1.0000000000000001e-09
  sol:chk:feastol = 9.9999999999999995e-07
  sol:chk:feastolrel = 1.0000000000000001e-09
Set parameter Heuristics to value 0.05
  mip:heurfrac = 0.050000000000000003

AMPL MP initial flat model has 210 variables (0 integer, 0 binary);
Objectives: 1 linear; 
Constraints:  384 linear; 58 quadratic;
Algebraic expressions:  58 signpowconstexp;

AMPL MP final model has 442 variables (0 integer, 0 binary);
Objectives: 1 linear; 
Constraints:  442 linear; 58 quadratic;
Algebraic expressions:  58 signpowconstexp;


Set parameter InfUnbdInfo to value 1
Gurobi Optimizer version 13.0.0 build v13.0.0rc1 (linux64 - "Debian GNU/Linux 13 (trixie)")

CPU model: INTEL(R) XEON(R) GOLD 6530, instruction set [SSE2|AVX|AVX2|AVX512]
Thread count: 32 physical cores, 64 logical processors, using up to 32 threads

Non-default parameters:
TimeLimit  600
MIPGap  1e-09
MIPGapAbs  1e-06
Method  2
ScaleFlag  1
MIPFocus  1
NodeMethod  1
OBBT  0
NLPHeur  1
VarBranch  0
InfUnbdInfo  1
NonConvex  2
NumericFocus  1
Presolve  1

Optimize a model with 442 rows, 442 columns and 984 nonzeros (Min)
Model fingerprint: 0x2079dd26
Model has 58 linear objective coefficients
Model has 58 general nonlinear constraints (116 nonlinear terms)
Variable types: 442 continuous, 0 integer (0 binary)
Coefficient statistics:
  Matrix range     [1e+00, 1e+07]
  Objective range  [1e+00, 1e+00]
  Bounds range     [2e-03, 2e+03]
  RHS range        [3e-04, 5e+07]
  NLCon coe range  [1e+00, 4e+02]
Presolve model has 58 nlconstr
Added 116 variables to disaggregate expressions
Presolve removed 1 rows and 175 columns
Presolve time: 0.00s
Presolved: 1195 rows, 384 columns, 2722 nonzeros
Presolved model has 58 bilinear constraint(s)
Presolved model has 58 nonlinear constraint(s)

Solving non-convex NLP to global optimality

Variable types: 384 continuous, 0 integer (0 binary)
Root barrier log...

Ordering time: 0.00s

Barrier statistics:
 AA' NZ     : 4.769e+03
 Factor NZ  : 1.006e+04 (roughly 1 MB of memory)
 Factor Ops : 1.301e+05 (less than 1 second per iteration)
 Threads    : 1

                  Objective                Residual
Iter       Primal          Dual         Primal    Dual     Compl     Time
   0   5.47537202e+08 -1.65857501e+09  1.90e+04 5.19e+01  7.36e+06     0s
   1   3.07836015e+08 -3.51346413e+08  2.94e+03 5.68e-13  1.18e+06     0s
   2   7.09592157e+07 -3.24111561e+07  5.08e+01 1.76e-11  7.22e+04     0s
   3   5.91662127e+07  5.46978976e+07  3.37e+00 8.30e-12  3.27e+03     0s
   4   5.79386447e+07  5.78726504e+07  3.01e-02 6.82e-13  4.41e+01     0s
   5   5.79209042e+07  5.79150419e+07  6.08e-03 6.82e-13  4.24e+00     0s
   6   5.79176390e+07  5.79157386e+07  1.68e-03 6.82e-13  1.30e+00     0s
   7   5.79169722e+07  5.79159864e+07  7.89e-04 1.82e-11  6.53e-01     0s
   8   5.79166324e+07  5.79163211e+07  3.38e-04 1.25e-12  2.03e-01     0s
   9   5.79165748e+07  5.79163573e+07  2.62e-04 1.19e-12  1.43e-01     0s
  10   5.79165621e+07  5.79164053e+07  2.45e-04 1.24e-11  1.26e-01     0s
  11   5.79165566e+07  5.79166571e+07  2.38e-04 2.33e-10  1.26e-01     0s
  12   5.79165508e+07  5.79209014e+07  2.30e-04 2.05e-08  1.17e-01     0s
  13   5.79165564e+07  5.79436291e+07  2.30e-04 1.48e-08  1.21e-01     0s
  14   5.79173704e+07  5.79523757e+07  2.30e-04 4.52e-08  5.66e-01     0s
  15   5.79194881e+07  5.79211245e+07  2.18e-04 1.03e-07  1.70e+00     0s
  16   5.79197998e+07  5.79608733e+07  2.15e-04 2.30e-08  2.93e-01     0s
  17   5.79197153e+07  5.79998969e+07  2.15e-04 2.68e-08  2.84e-01     0s
  18   5.79651441e+07  5.79617725e+07  9.39e-05 5.01e-08  1.30e+01     0s
  19   5.79668494e+07  5.80002522e+07  8.90e-05 2.01e-09  2.68e-01     0s
  20   5.79668718e+07  5.80244966e+07  8.89e-05 4.51e-05  3.07e-01     0s
  21   5.79698411e+07  5.80017758e+07  8.77e-05 6.88e-05  1.73e+00     0s
  22   5.80103250e+07  5.80005274e+07  3.93e-05 2.81e-07  1.49e+01     0s
  23   5.80164043e+07  5.80025294e+07  2.80e-05 6.26e-08  1.50e+01     0s
  24   5.80357630e+07  5.80261089e+07  2.63e-06 3.94e-08  6.77e+00     0s
  25   5.80293427e+07  5.80290193e+07  4.51e-08 8.36e-08  2.10e-01     0s
  26   5.80291560e+07  5.80291557e+07  3.60e-10 1.87e-08  1.40e-04     0s
  27   5.80291559e+07  5.80291559e+07  2.67e-10 2.07e-08  1.85e-07     0s
  28   5.80291559e+07  5.80291559e+07  3.10e-10 1.27e-05  3.17e-10     0s

Barrier solved model in 28 iterations and 0.41 seconds (0.09 work units)
Optimal objective 5.80291559e+07

Crossover time: 0.00 seconds (0.00 work units)

Root relaxation: objective 5.802916e+07, 133 iterations, 0.05 seconds (0.02 work units)

    Nodes    |    Current Node    |     Objective Bounds      |     Work
 Expl Unexpl |  Obj  Depth IntInf | Incumbent    BestBd   Gap | It/Node Time

     0     0 5.8029e+07    0   57          - 5.8029e+07      -     -    0s
     0     0 5.8050e+07    0   57          - 5.8050e+07      -     -    0s
     0     0 5.8071e+07    0   58          - 5.8071e+07      -     -    0s
     0     0 5.8074e+07    0   57          - 5.8074e+07      -     -    0s
     0     0 5.8074e+07    0   57          - 5.8074e+07      -     -    0s
     0     2 5.8074e+07    0   57          - 5.8074e+07      -     -    2s
  1805  1732 6.7897e+07   41   52          - 5.8373e+07      -  49.4    5s
  5112  4629 8.0665e+07   97   66          - 5.8376e+07      -  49.2   10s
  6193  5599 8.0929e+07  105   64          - 5.8376e+07      -  50.6   15s
  6992  6345 8.1723e+07  111   66          - 5.8418e+07      -  50.8   20s
  8632  7955 6.0429e+07   17   61          - 5.8454e+07      -  50.9   25s
  9360  8495 6.2397e+07   40   53          - 5.8480e+07      -  52.2   31s
  9530  8501 7.3800e+07   24    0          - 5.8480e+07      -  52.4   40s
 12721 10532 infeasible   67               - 5.8480e+07      -  52.7   45s
 13966 11074 6.0411e+07   45   54          - 5.8480e+07      -  56.1   50s
 14490 11335 6.0387e+07   48   53          - 5.8480e+07      -  57.3   55s
 14935 11507 6.0457e+07   52   54          - 5.8480e+07      -  58.0   60s
 15777 12055 6.0434e+07   55   51          - 5.8549e+07      -  58.3   65s
 17451 12975 6.0462e+07   66   52          - 5.8893e+07      -  59.5   70s
 18414 13324 6.0465e+07   68   52          - 5.8963e+07      -  60.9   75s
 19526 13967 6.0459e+07   70   50          - 5.9049e+07      -  62.1   80s
 20462 14401 6.0462e+07   71   50          - 5.9111e+07      -  61.8   85s
 21298 14809 6.2456e+07   82   52          - 5.9111e+07      -  62.3   91s
 21554 15024 6.3628e+07   84   51          - 5.9111e+07      -  62.4   95s
 22158 15275 6.5010e+07   86   58          - 5.9111e+07      -  62.4  100s
 22488 15453 infeasible   87               - 5.9111e+07      -  62.5  106s
 22816 15885 infeasible   88               - 5.9200e+07      -  62.3  110s
 23983 16218 1.5481e+08   97   60          - 5.9343e+07      -  63.7  115s
 24233 16395 6.1567e+07   31   61          - 5.9343e+07      -  63.6  120s
 24787 16786 6.1581e+07   32   60          - 5.9343e+07      -  63.8  126s
 25495 17193 6.2029e+07   33   59          - 5.9343e+07      -  63.4  130s
 26581 17841 6.2501e+07   35   63          - 5.9343e+07      -  63.1  136s
 27308 19020 6.2876e+07   35   61          - 5.9343e+07      -  62.6  142s
 29150 19572 7.5391e+07   93   52          - 5.9343e+07      -  62.5  149s
 29774 20113 7.5497e+07   94   53          - 5.9343e+07      -  62.6  154s
 30589 20406 7.5594e+07   94   53          - 5.9343e+07      -  61.9  160s
 31178 20472 7.5608e+07   94   53          - 5.9343e+07      -  61.6  166s
 31474 20948 7.5940e+07   96   55          - 5.9343e+07      -  61.6  172s
 32137 21777 7.5824e+07   96   52          - 5.9343e+07      -  61.1  178s
 33361 22347 7.6527e+07  106   53          - 5.9343e+07      -  61.0  183s
 34465 22802 7.6464e+07  106   54          - 5.9343e+07      -  60.6  190s
 35464 23361 6.1198e+07   53   50          - 5.9343e+07      -  59.9  197s
 36492 24146 6.1216e+07   54   49          - 5.9343e+07      -  59.1  205s
 37643 25663 6.1216e+07   54   49          - 5.9343e+07      -  58.3  213s
 39674 26969 6.4862e+07   83   51          - 5.9343e+07      -  57.8  220s
 41186 27254 6.5365e+07   88   42          - 5.9343e+07      -  57.5  231s
 41515 28540 6.5304e+07   88   43          - 5.9343e+07      -  57.6  238s
 42959 29421 6.5502e+07   96   41          - 5.9343e+07      -  57.5  245s
 44024 30851 6.5463e+07   96   40          - 5.9343e+07      -  57.8  254s
 45632 32242 6.5619e+07  103   42          - 5.9343e+07      -  57.3  263s
 47129 33457 6.5808e+07  104   44          - 5.9343e+07      -  57.5  273s
 48462 34555 6.6616e+07  128   42          - 5.9343e+07      -  57.9  282s
 49610 36023 6.6776e+07  135   38          - 5.9343e+07      -  57.5  294s
 51362 36843 6.6771e+07  135   38          - 5.9343e+07      -  57.3  303s
 52440 38059 6.6784e+07  139   37          - 5.9343e+07      -  57.3  313s
 53792 38489 6.6807e+07  144   36          - 5.9343e+07      -  57.0  325s
 54332 40132 6.6807e+07  144   36          - 5.9343e+07      -  57.1  336s
 56215 42306 7.0387e+07  151   43          - 5.9343e+07      -  56.8  349s
 58741 43608 7.4051e+07  165   44          - 5.9343e+07      -  57.2  362s
 60385 44086 7.3831e+07  165   42          - 5.9343e+07      -  57.6  376s
 60943 46893 7.5286e+07  167   41          - 5.9343e+07      -  57.7  394s
 64526 49256 7.6612e+07  173   39          - 5.9533e+07      -  58.4  408s
 67279 50149 7.7145e+07  199   34          - 5.9533e+07      -  58.2  421s
 68302 52847 7.7106e+07  196   37          - 5.9533e+07      -  58.2  435s
 71388 53477 7.7396e+07   56   54          - 5.9589e+07      -  58.2  452s
 72134 55605 8.0815e+07   62   55          - 5.9589e+07      -  58.2  466s
 74658 57761 1.1172e+08   86   52          - 5.9589e+07      -  58.1  486s
 77196 58884 1.2619e+08  102   56          - 5.9589e+07      -  58.0  501s
 78525 69714 1.2627e+08  103   56          - 5.9589e+07      -  58.1  517s
 91847 73591 6.7506e+07  102   44          - 5.9662e+07      -  58.3  533s
 96716 75242 6.7902e+07  117   43          - 5.9662e+07      -  58.6  544s
 98681 75863 6.7890e+07  124   45          - 5.9662e+07      -  58.6  557s
 99398 76592 6.7945e+07  127   45          - 5.9679e+07      -  58.7  570s
 100297 77987 6.7947e+07  127   44          - 5.9679e+07      -  58.7  586s
 101796 79000 6.8408e+07  137   43          - 5.9679e+07      -  58.6  600s

Cutting planes:
  RLT: 3

Explored 103019 nodes (6048478 simplex iterations) in 600.06 seconds (125.62 work units)
Thread count was 32 (of 64 available processors)

Solution count 0

Time limit reached
Best objective -, best bound 5.967933030643e+07, gap -
Gurobi 13.0.0: time limit, without a feasible solution
6.04848e+06 simplex iterations
55 barrier iterations
103019 branching nodes
Objective: 0.0
gurobi solve time: 600.17 seconds

-------------------------------- Solving Recover Model using cplex --------------------------
CPLEX 22.1.2: CPLEX 22.1.2: infeasible problem
0 simplex iterations

suffix dunbdd OUT;

Total absolute constraint violation: 1.23e+04

*******************************************************************************
HEAD-LOSS CONSTRAINT: ORIGINAL vs. APPROXIMATION

+-------------+--------+----------------------+--------------------+-----------------+-----------------+
| Arc (i,j)   |   Flow |   Original Violation |   Approx Violation |   Absolute Diff |   Relative Diff |
+=============+========+======================+====================+=================+=================+
| 1,17        |      0 |                    0 |                  0 |               0 |               0 |
+-------------+--------+----------------------+--------------------+-----------------+-----------------+
| 1,31        |      0 |                    0 |                  0 |               0 |               0 |
+-------------+--------+----------------------+--------------------+-----------------+-----------------+
| 2,3         |      0 |                    0 |                  0 |               0 |               0 |
+-------------+--------+----------------------+--------------------+-----------------+-----------------+
| 2,18        |      0 |                    0 |                  0 |               0 |               0 |
+-------------+--------+----------------------+--------------------+-----------------+-----------------+
| 3,4         |      0 |                    0 |                  0 |               0 |               0 |
+-------------+--------+----------------------+--------------------+-----------------+-----------------+
| 3,11        |      0 |                    0 |                  0 |               0 |               0 |
+-------------+--------+----------------------+--------------------+-----------------+-----------------+
| 4,5         |      0 |                    0 |                  0 |               0 |               0 |
+-------------+--------+----------------------+--------------------+-----------------+-----------------+
| 5,6         |      0 |                    0 |                  0 |               0 |               0 |
+-------------+--------+----------------------+--------------------+-----------------+-----------------+
| 5,13        |      0 |                    0 |                  0 |               0 |               0 |
+-------------+--------+----------------------+--------------------+-----------------+-----------------+
| 6,7         |      0 |                    0 |                  0 |               0 |               0 |
+-------------+--------+----------------------+--------------------+-----------------+-----------------+
| 7,24        |      0 |                    0 |                  0 |               0 |               0 |
+-------------+--------+----------------------+--------------------+-----------------+-----------------+
| 8,28        |      0 |                    0 |                  0 |               0 |               0 |
+-------------+--------+----------------------+--------------------+-----------------+-----------------+
| 9,36        |      0 |                    0 |                  0 |               0 |               0 |
+-------------+--------+----------------------+--------------------+-----------------+-----------------+
| 10,11       |      0 |                    0 |                  0 |               0 |               0 |
+-------------+--------+----------------------+--------------------+-----------------+-----------------+
| 10,32       |      0 |                    0 |                  0 |               0 |               0 |
+-------------+--------+----------------------+--------------------+-----------------+-----------------+
| 11,19       |      0 |                    0 |                  0 |               0 |               0 |
+-------------+--------+----------------------+--------------------+-----------------+-----------------+
| 11,26       |      0 |                    0 |                  0 |               0 |               0 |
+-------------+--------+----------------------+--------------------+-----------------+-----------------+
| 12,4        |      0 |                    0 |                  0 |               0 |               0 |
+-------------+--------+----------------------+--------------------+-----------------+-----------------+
| 12,13       |      0 |                    0 |                  0 |               0 |               0 |
+-------------+--------+----------------------+--------------------+-----------------+-----------------+
| 13,14       |      0 |                    0 |                  0 |               0 |               0 |
+-------------+--------+----------------------+--------------------+-----------------+-----------------+
| 14,20       |      0 |                    0 |                  0 |               0 |               0 |
+-------------+--------+----------------------+--------------------+-----------------+-----------------+
| 14,21       |      0 |                    0 |                  0 |               0 |               0 |
+-------------+--------+----------------------+--------------------+-----------------+-----------------+
| 15,16       |      0 |                    0 |                  0 |               0 |               0 |
+-------------+--------+----------------------+--------------------+-----------------+-----------------+
| 15,22       |      0 |                    0 |                  0 |               0 |               0 |
+-------------+--------+----------------------+--------------------+-----------------+-----------------+
| 16,25       |      0 |                    0 |                  0 |               0 |               0 |
+-------------+--------+----------------------+--------------------+-----------------+-----------------+
| 16,29       |      0 |                    0 |                  0 |               0 |               0 |
+-------------+--------+----------------------+--------------------+-----------------+-----------------+
| 17,2        |      0 |                    0 |                  0 |               0 |               0 |
+-------------+--------+----------------------+--------------------+-----------------+-----------------+
| 17,18       |      0 |                    0 |                  0 |               0 |               0 |
+-------------+--------+----------------------+--------------------+-----------------+-----------------+
| 18,10       |      0 |                    0 |                  0 |               0 |               0 |
+-------------+--------+----------------------+--------------------+-----------------+-----------------+
| 19,12       |      0 |                    0 |                  0 |               0 |               0 |
+-------------+--------+----------------------+--------------------+-----------------+-----------------+
| 19,20       |      0 |                    0 |                  0 |               0 |               0 |
+-------------+--------+----------------------+--------------------+-----------------+-----------------+
| 20,15       |      0 |                    0 |                  0 |               0 |               0 |
+-------------+--------+----------------------+--------------------+-----------------+-----------------+
| 21,6        |      0 |                    0 |                  0 |               0 |               0 |
+-------------+--------+----------------------+--------------------+-----------------+-----------------+
| 21,22       |      0 |                    0 |                  0 |               0 |               0 |
+-------------+--------+----------------------+--------------------+-----------------+-----------------+
| 22,7        |      0 |                    0 |                  0 |               0 |               0 |
+-------------+--------+----------------------+--------------------+-----------------+-----------------+
| 22,23       |      0 |                    0 |                  0 |               0 |               0 |
+-------------+--------+----------------------+--------------------+-----------------+-----------------+
| 23,25       |      0 |                    0 |                  0 |               0 |               0 |
+-------------+--------+----------------------+--------------------+-----------------+-----------------+
| 24,8        |      0 |                    0 |                  0 |               0 |               0 |
+-------------+--------+----------------------+--------------------+-----------------+-----------------+
| 24,23       |      0 |                    0 |                  0 |               0 |               0 |
+-------------+--------+----------------------+--------------------+-----------------+-----------------+
| 25,8        |      0 |                    0 |                  0 |               0 |               0 |
+-------------+--------+----------------------+--------------------+-----------------+-----------------+
| 26,15       |      0 |                    0 |                  0 |               0 |               0 |
+-------------+--------+----------------------+--------------------+-----------------+-----------------+
| 26,27       |      0 |                    0 |                  0 |               0 |               0 |
+-------------+--------+----------------------+--------------------+-----------------+-----------------+
| 27,16       |      0 |                    0 |                  0 |               0 |               0 |
+-------------+--------+----------------------+--------------------+-----------------+-----------------+
| 28,9        |      0 |                    0 |                  0 |               0 |               0 |
+-------------+--------+----------------------+--------------------+-----------------+-----------------+
| 28,29       |      0 |                    0 |                  0 |               0 |               0 |
+-------------+--------+----------------------+--------------------+-----------------+-----------------+
| 29,30       |      0 |                    0 |                  0 |               0 |               0 |
+-------------+--------+----------------------+--------------------+-----------------+-----------------+
| 29,33       |      0 |                    0 |                  0 |               0 |               0 |
+-------------+--------+----------------------+--------------------+-----------------+-----------------+
| 30,9        |      0 |                    0 |                  0 |               0 |               0 |
+-------------+--------+----------------------+--------------------+-----------------+-----------------+
| 30,35       |      0 |                    0 |                  0 |               0 |               0 |
+-------------+--------+----------------------+--------------------+-----------------+-----------------+
| 31,10       |      0 |                    0 |                  0 |               0 |               0 |
+-------------+--------+----------------------+--------------------+-----------------+-----------------+
| 31,34       |      0 |                    0 |                  0 |               0 |               0 |
+-------------+--------+----------------------+--------------------+-----------------+-----------------+
| 32,27       |      0 |                    0 |                  0 |               0 |               0 |
+-------------+--------+----------------------+--------------------+-----------------+-----------------+
| 32,33       |      0 |                    0 |                  0 |               0 |               0 |
+-------------+--------+----------------------+--------------------+-----------------+-----------------+
| 33,34       |      0 |                    0 |                  0 |               0 |               0 |
+-------------+--------+----------------------+--------------------+-----------------+-----------------+
| 34,35       |      0 |                    0 |                  0 |               0 |               0 |
+-------------+--------+----------------------+--------------------+-----------------+-----------------+
| 35,36       |      0 |                    0 |                  0 |               0 |               0 |
+-------------+--------+----------------------+--------------------+-----------------+-----------------+
| 36,1        |      0 |                    0 |                  0 |               0 |               0 |
+-------------+--------+----------------------+--------------------+-----------------+-----------------+
| 37,1        |      0 |                  121 |                121 |               0 |               0 |
+-------------+--------+----------------------+--------------------+-----------------+-----------------+

Sum of original head-loss violation : 1.21e+02
Sum of approx  head-loss violation  : 1.21e+02
Sum of absolute diff (orig vs approx): 0.00e+00
Sum of relative diff (orig vs approx): 0.00e+00

*******************************************************************************

Total Cost: 0.0
cplex solve time: 0.01 seconds
